Version identifier: 22.1.1.0 | 2022-11-28 | 9160aff4d
CPXPARAM_ClockType                               1
CPXPARAM_Read_DataCheck                          1
CPXPARAM_Threads                                 1
CPXPARAM_TimeLimit                               7200
CPXPARAM_MIP_Tolerances_AbsMIPGap                0
CPXPARAM_MIP_Tolerances_MIPGap                   0
CPXPARAM_MIP_Tolerances_Integrality              0
Tried aggregator 2 times.
MIP Presolve eliminated 443 rows and 1 columns.
MIP Presolve modified 750 coefficients.
Aggregator did 300 substitutions.
Reduced MIP has 1546 rows, 899 columns, and 4532 nonzeros.
Reduced MIP has 899 binaries, 0 generals, 0 SOSs, and 0 indicators.
Presolve time = 0.01 sec. (6.07 ticks)
Found incumbent of value -534.000000 after 0.02 sec. (11.70 ticks)
Probing time = 0.00 sec. (1.84 ticks)
Tried aggregator 1 time.
Detecting symmetries...
MIP Presolve eliminated 102 rows and 4 columns.
MIP Presolve modified 2 coefficients.
Reduced MIP has 1444 rows, 895 columns, and 4222 nonzeros.
Reduced MIP has 895 binaries, 0 generals, 0 SOSs, and 0 indicators.
Presolve time = 0.01 sec. (4.79 ticks)
Probing time = 0.00 sec. (1.67 ticks)
Clique table members: 2981.
MIP emphasis: balance optimality and feasibility.
MIP search method: dynamic search.
Parallel mode: none, using 1 thread.
Root relaxation solution time = 0.01 sec. (13.33 ticks)

        Nodes                                         Cuts/
   Node  Left     Objective  IInf  Best Integer    Best Bound    ItCnt     Gap

*     0+    0                         -526.0000      150.0000           128.52%
      0     0      100.0000   277     -526.0000      100.0000      489  119.01%
      0     0      100.0000   287     -526.0000      Cuts: 67      557  119.01%
      0     0      100.0000   364     -526.0000      Cuts: 90      803  119.01%
*     0+    0                          100.0000      100.0000             0.00%
      0     0        cutoff            100.0000      100.0000      803    0.00%
Elapsed time = 0.25 sec. (176.63 ticks, tree = 0.01 MB, solutions = 3)

Zero-half cuts applied:  7

Root node processing (before b&c):
  Real time             =    0.25 sec. (176.71 ticks)
Sequential b&c:
  Real time             =    0.00 sec. (0.00 ticks)
                          ------------
Total (root+branch&cut) =    0.25 sec. (176.71 ticks)
Solution is feasible.

---------------------
@@@ MIP_optimal
>>> Benchmark flat50-3.cnf k 2 OPT 100 TimeCost 0.3709876537322998 TimeSolve 0.26500964164733887 TimeRead 0.0022814273834228516 TimeTrans 0.10369658470153809
